0 6 33 73 1 22 62 28 61 69 71 60 70 20 37 36 47 21 74 30 2 68 0
0 51 16 63 43 42 64 41 56 23 49 24 18 50 25 55 31 10 58 12 0
0 67 34 46 8 35 19 54 13 57 15 5 48 29 45 27 52 4 75 0
0 26 7 53 14 59 11 66 65 38 72 39 9 32 44 3 40 17 0
